SCIP version 5.0.0 [precision: 8 byte] [memory: block] [mode: optimized] [LP solver: NONE] [GitHash: 3bbd232]
Copyright (C) 2002-2017 Konrad-Zuse-Zentrum fuer Informationstechnik Berlin (ZIB)

External codes: 
  Readline EditLine w  GNU library for command line editing (gnu.org/s/readline)
  CppAD 20160000.1     Algorithmic Differentiation of C++ algorithms developed by B. Bell (www.coin-or.org/CppAD)
  ZLIB 1.2.5           General purpose compression library by J. Gailly and M. Adler (zlib.net)
  GMP 6.1.2            GNU Multiple Precision Arithmetic Library developed by T. Granlund (gmplib.org)

user parameter file <scip.set> not found - using default parameters

read problem <../../Split_data/output/spectf/9/1_sample_spectf.logreg>
============

File name	:	../../Split_data/output/spectf/9/1_sample_spectf.logreg
Problem name 	:	1_sample_spectf
Number of data	:	214
Number of var	:	44
The given data has linear independence

[dim=1] time: 0.009263
[dim=2] time: 0.018104
[dim=3] time: 0.026141
[dim=4] time: 0.032929
[dim=5] time: 0.04008
[dim=6] time: 0.046564
[dim=7] time: 0.053253
[dim=8] time: 0.059481
[dim=9] time: 0.065702
[dim=10] time: 0.071739
[dim=11] time: 0.077961
[dim=12] time: 0.083427
[dim=13] time: 0.088957
[dim=14] time: 0.094328
[dim=15] Time of forward = 0.099888sec.
AIC: 144.177
k: 14

[dim=44] time: 0.029122
[dim=43] time: 0.047358
[dim=42] time: 0.064043
[dim=41] time: 0.081912
[dim=40] time: 0.094704
[dim=39] time: 0.110218
[dim=38] time: 0.122559
[dim=37] time: 0.139132
[dim=36] time: 0.15254
[dim=35] time: 0.166713
[dim=34] time: 0.179437
[dim=33] time: 0.192653
[dim=32] time: 0.203807
[dim=31] time: 0.215964
[dim=30] time: 0.225271
[dim=29] time: 0.23631
[dim=28] time: 0.246836
[dim=27] time: 0.256604
[dim=26] time: 0.263989
[dim=25] time: 0.270879
[dim=24] time: 0.277657
[dim=23] time: 0.285299
[dim=22] time: 0.293041
[dim=21] time: 0.298547
[dim=20] Time of backward = 0.304155sec.
AIC: 146.96
k: 21
